c *********************************
c * Circuit generated by BenCGen
c *
c * RippleCarryAdderSubtractor_108_108_108_OutSunT
c *
c * Ports with 1 gate(s): 2
c * Ports with 2 gate(s): 650
c * Total gates: 652
c *********************************
p cnf 868 2279
1 327 0
-1 -327 0
1 -326 0
327 -326 0
-1 -327 326 0
326 328 0
-326 -328 0
109 326 -329 0
-109 326 329 0
109 -326 329 0
-109 -326 -329 0
110 326 -330 0
-110 326 330 0
110 -326 330 0
-110 -326 -330 0
111 326 -331 0
-111 326 331 0
111 -326 331 0
-111 -326 -331 0
112 326 -332 0
-112 326 332 0
112 -326 332 0
-112 -326 -332 0
113 326 -333 0
-113 326 333 0
113 -326 333 0
-113 -326 -333 0
114 326 -334 0
-114 326 334 0
114 -326 334 0
-114 -326 -334 0
115 326 -335 0
-115 326 335 0
115 -326 335 0
-115 -326 -335 0
116 326 -336 0
-116 326 336 0
116 -326 336 0
-116 -326 -336 0
117 326 -337 0
-117 326 337 0
117 -326 337 0
-117 -326 -337 0
118 326 -338 0
-118 326 338 0
118 -326 338 0
-118 -326 -338 0
119 326 -339 0
-119 326 339 0
119 -326 339 0
-119 -326 -339 0
120 326 -340 0
-120 326 340 0
120 -326 340 0
-120 -326 -340 0
121 326 -341 0
-121 326 341 0
121 -326 341 0
-121 -326 -341 0
122 326 -342 0
-122 326 342 0
122 -326 342 0
-122 -326 -342 0
123 326 -343 0
-123 326 343 0
123 -326 343 0
-123 -326 -343 0
124 326 -344 0
-124 326 344 0
124 -326 344 0
-124 -326 -344 0
125 326 -345 0
-125 326 345 0
125 -326 345 0
-125 -326 -345 0
126 326 -346 0
-126 326 346 0
126 -326 346 0
-126 -326 -346 0
127 326 -347 0
-127 326 347 0
127 -326 347 0
-127 -326 -347 0
128 326 -348 0
-128 326 348 0
128 -326 348 0
-128 -326 -348 0
129 326 -349 0
-129 326 349 0
129 -326 349 0
-129 -326 -349 0
130 326 -350 0
-130 326 350 0
130 -326 350 0
-130 -326 -350 0
131 326 -351 0
-131 326 351 0
131 -326 351 0
-131 -326 -351 0
132 326 -352 0
-132 326 352 0
132 -326 352 0
-132 -326 -352 0
133 326 -353 0
-133 326 353 0
133 -326 353 0
-133 -326 -353 0
134 326 -354 0
-134 326 354 0
134 -326 354 0
-134 -326 -354 0
135 326 -355 0
-135 326 355 0
135 -326 355 0
-135 -326 -355 0
136 326 -356 0
-136 326 356 0
136 -326 356 0
-136 -326 -356 0
137 326 -357 0
-137 326 357 0
137 -326 357 0
-137 -326 -357 0
138 326 -358 0
-138 326 358 0
138 -326 358 0
-138 -326 -358 0
139 326 -359 0
-139 326 359 0
139 -326 359 0
-139 -326 -359 0
140 326 -360 0
-140 326 360 0
140 -326 360 0
-140 -326 -360 0
141 326 -361 0
-141 326 361 0
141 -326 361 0
-141 -326 -361 0
142 326 -362 0
-142 326 362 0
142 -326 362 0
-142 -326 -362 0
143 326 -363 0
-143 326 363 0
143 -326 363 0
-143 -326 -363 0
144 326 -364 0
-144 326 364 0
144 -326 364 0
-144 -326 -364 0
145 326 -365 0
-145 326 365 0
145 -326 365 0
-145 -326 -365 0
146 326 -366 0
-146 326 366 0
146 -326 366 0
-146 -326 -366 0
147 326 -367 0
-147 326 367 0
147 -326 367 0
-147 -326 -367 0
148 326 -368 0
-148 326 368 0
148 -326 368 0
-148 -326 -368 0
149 326 -369 0
-149 326 369 0
149 -326 369 0
-149 -326 -369 0
150 326 -370 0
-150 326 370 0
150 -326 370 0
-150 -326 -370 0
151 326 -371 0
-151 326 371 0
151 -326 371 0
-151 -326 -371 0
152 326 -372 0
-152 326 372 0
152 -326 372 0
-152 -326 -372 0
153 326 -373 0
-153 326 373 0
153 -326 373 0
-153 -326 -373 0
154 326 -374 0
-154 326 374 0
154 -326 374 0
-154 -326 -374 0
155 326 -375 0
-155 326 375 0
155 -326 375 0
-155 -326 -375 0
156 326 -376 0
-156 326 376 0
156 -326 376 0
-156 -326 -376 0
157 326 -377 0
-157 326 377 0
157 -326 377 0
-157 -326 -377 0
158 326 -378 0
-158 326 378 0
158 -326 378 0
-158 -326 -378 0
159 326 -379 0
-159 326 379 0
159 -326 379 0
-159 -326 -379 0
160 326 -380 0
-160 326 380 0
160 -326 380 0
-160 -326 -380 0
161 326 -381 0
-161 326 381 0
161 -326 381 0
-161 -326 -381 0
162 326 -382 0
-162 326 382 0
162 -326 382 0
-162 -326 -382 0
163 326 -383 0
-163 326 383 0
163 -326 383 0
-163 -326 -383 0
164 326 -384 0
-164 326 384 0
164 -326 384 0
-164 -326 -384 0
165 326 -385 0
-165 326 385 0
165 -326 385 0
-165 -326 -385 0
166 326 -386 0
-166 326 386 0
166 -326 386 0
-166 -326 -386 0
167 326 -387 0
-167 326 387 0
167 -326 387 0
-167 -326 -387 0
168 326 -388 0
-168 326 388 0
168 -326 388 0
-168 -326 -388 0
169 326 -389 0
-169 326 389 0
169 -326 389 0
-169 -326 -389 0
170 326 -390 0
-170 326 390 0
170 -326 390 0
-170 -326 -390 0
171 326 -391 0
-171 326 391 0
171 -326 391 0
-171 -326 -391 0
172 326 -392 0
-172 326 392 0
172 -326 392 0
-172 -326 -392 0
173 326 -393 0
-173 326 393 0
173 -326 393 0
-173 -326 -393 0
174 326 -394 0
-174 326 394 0
174 -326 394 0
-174 -326 -394 0
175 326 -395 0
-175 326 395 0
175 -326 395 0
-175 -326 -395 0
176 326 -396 0
-176 326 396 0
176 -326 396 0
-176 -326 -396 0
177 326 -397 0
-177 326 397 0
177 -326 397 0
-177 -326 -397 0
178 326 -398 0
-178 326 398 0
178 -326 398 0
-178 -326 -398 0
179 326 -399 0
-179 326 399 0
179 -326 399 0
-179 -326 -399 0
180 326 -400 0
-180 326 400 0
180 -326 400 0
-180 -326 -400 0
181 326 -401 0
-181 326 401 0
181 -326 401 0
-181 -326 -401 0
182 326 -402 0
-182 326 402 0
182 -326 402 0
-182 -326 -402 0
183 326 -403 0
-183 326 403 0
183 -326 403 0
-183 -326 -403 0
184 326 -404 0
-184 326 404 0
184 -326 404 0
-184 -326 -404 0
185 326 -405 0
-185 326 405 0
185 -326 405 0
-185 -326 -405 0
186 326 -406 0
-186 326 406 0
186 -326 406 0
-186 -326 -406 0
187 326 -407 0
-187 326 407 0
187 -326 407 0
-187 -326 -407 0
188 326 -408 0
-188 326 408 0
188 -326 408 0
-188 -326 -408 0
189 326 -409 0
-189 326 409 0
189 -326 409 0
-189 -326 -409 0
190 326 -410 0
-190 326 410 0
190 -326 410 0
-190 -326 -410 0
191 326 -411 0
-191 326 411 0
191 -326 411 0
-191 -326 -411 0
192 326 -412 0
-192 326 412 0
192 -326 412 0
-192 -326 -412 0
193 326 -413 0
-193 326 413 0
193 -326 413 0
-193 -326 -413 0
194 326 -414 0
-194 326 414 0
194 -326 414 0
-194 -326 -414 0
195 326 -415 0
-195 326 415 0
195 -326 415 0
-195 -326 -415 0
196 326 -416 0
-196 326 416 0
196 -326 416 0
-196 -326 -416 0
197 326 -417 0
-197 326 417 0
197 -326 417 0
-197 -326 -417 0
198 326 -418 0
-198 326 418 0
198 -326 418 0
-198 -326 -418 0
199 326 -419 0
-199 326 419 0
199 -326 419 0
-199 -326 -419 0
200 326 -420 0
-200 326 420 0
200 -326 420 0
-200 -326 -420 0
201 326 -421 0
-201 326 421 0
201 -326 421 0
-201 -326 -421 0
202 326 -422 0
-202 326 422 0
202 -326 422 0
-202 -326 -422 0
203 326 -423 0
-203 326 423 0
203 -326 423 0
-203 -326 -423 0
204 326 -424 0
-204 326 424 0
204 -326 424 0
-204 -326 -424 0
205 326 -425 0
-205 326 425 0
205 -326 425 0
-205 -326 -425 0
206 326 -426 0
-206 326 426 0
206 -326 426 0
-206 -326 -426 0
207 326 -427 0
-207 326 427 0
207 -326 427 0
-207 -326 -427 0
208 326 -428 0
-208 326 428 0
208 -326 428 0
-208 -326 -428 0
209 326 -429 0
-209 326 429 0
209 -326 429 0
-209 -326 -429 0
210 326 -430 0
-210 326 430 0
210 -326 430 0
-210 -326 -430 0
211 326 -431 0
-211 326 431 0
211 -326 431 0
-211 -326 -431 0
212 326 -432 0
-212 326 432 0
212 -326 432 0
-212 -326 -432 0
213 326 -433 0
-213 326 433 0
213 -326 433 0
-213 -326 -433 0
214 326 -434 0
-214 326 434 0
214 -326 434 0
-214 -326 -434 0
215 326 -435 0
-215 326 435 0
215 -326 435 0
-215 -326 -435 0
216 326 -436 0
-216 326 436 0
216 -326 436 0
-216 -326 -436 0
1 329 -438 0
-1 329 438 0
1 -329 438 0
-1 -329 -438 0
438 326 -217 0
-438 326 217 0
438 -326 217 0
-438 -326 -217 0
326 -439 0
438 -439 0
-326 -438 439 0
329 -440 0
1 -440 0
-329 -1 440 0
-439 437 0
-440 437 0
439 440 -437 0
2 330 -442 0
-2 330 442 0
2 -330 442 0
-2 -330 -442 0
442 437 -218 0
-442 437 218 0
442 -437 218 0
-442 -437 -218 0
437 -443 0
442 -443 0
-437 -442 443 0
330 -444 0
2 -444 0
-330 -2 444 0
-443 441 0
-444 441 0
443 444 -441 0
3 331 -446 0
-3 331 446 0
3 -331 446 0
-3 -331 -446 0
446 441 -219 0
-446 441 219 0
446 -441 219 0
-446 -441 -219 0
441 -447 0
446 -447 0
-441 -446 447 0
331 -448 0
3 -448 0
-331 -3 448 0
-447 445 0
-448 445 0
447 448 -445 0
4 332 -450 0
-4 332 450 0
4 -332 450 0
-4 -332 -450 0
450 445 -220 0
-450 445 220 0
450 -445 220 0
-450 -445 -220 0
445 -451 0
450 -451 0
-445 -450 451 0
332 -452 0
4 -452 0
-332 -4 452 0
-451 449 0
-452 449 0
451 452 -449 0
5 333 -454 0
-5 333 454 0
5 -333 454 0
-5 -333 -454 0
454 449 -221 0
-454 449 221 0
454 -449 221 0
-454 -449 -221 0
449 -455 0
454 -455 0
-449 -454 455 0
333 -456 0
5 -456 0
-333 -5 456 0
-455 453 0
-456 453 0
455 456 -453 0
6 334 -458 0
-6 334 458 0
6 -334 458 0
-6 -334 -458 0
458 453 -222 0
-458 453 222 0
458 -453 222 0
-458 -453 -222 0
453 -459 0
458 -459 0
-453 -458 459 0
334 -460 0
6 -460 0
-334 -6 460 0
-459 457 0
-460 457 0
459 460 -457 0
7 335 -462 0
-7 335 462 0
7 -335 462 0
-7 -335 -462 0
462 457 -223 0
-462 457 223 0
462 -457 223 0
-462 -457 -223 0
457 -463 0
462 -463 0
-457 -462 463 0
335 -464 0
7 -464 0
-335 -7 464 0
-463 461 0
-464 461 0
463 464 -461 0
8 336 -466 0
-8 336 466 0
8 -336 466 0
-8 -336 -466 0
466 461 -224 0
-466 461 224 0
466 -461 224 0
-466 -461 -224 0
461 -467 0
466 -467 0
-461 -466 467 0
336 -468 0
8 -468 0
-336 -8 468 0
-467 465 0
-468 465 0
467 468 -465 0
9 337 -470 0
-9 337 470 0
9 -337 470 0
-9 -337 -470 0
470 465 -225 0
-470 465 225 0
470 -465 225 0
-470 -465 -225 0
465 -471 0
470 -471 0
-465 -470 471 0
337 -472 0
9 -472 0
-337 -9 472 0
-471 469 0
-472 469 0
471 472 -469 0
10 338 -474 0
-10 338 474 0
10 -338 474 0
-10 -338 -474 0
474 469 -226 0
-474 469 226 0
474 -469 226 0
-474 -469 -226 0
469 -475 0
474 -475 0
-469 -474 475 0
338 -476 0
10 -476 0
-338 -10 476 0
-475 473 0
-476 473 0
475 476 -473 0
11 339 -478 0
-11 339 478 0
11 -339 478 0
-11 -339 -478 0
478 473 -227 0
-478 473 227 0
478 -473 227 0
-478 -473 -227 0
473 -479 0
478 -479 0
-473 -478 479 0
339 -480 0
11 -480 0
-339 -11 480 0
-479 477 0
-480 477 0
479 480 -477 0
12 340 -482 0
-12 340 482 0
12 -340 482 0
-12 -340 -482 0
482 477 -228 0
-482 477 228 0
482 -477 228 0
-482 -477 -228 0
477 -483 0
482 -483 0
-477 -482 483 0
340 -484 0
12 -484 0
-340 -12 484 0
-483 481 0
-484 481 0
483 484 -481 0
13 341 -486 0
-13 341 486 0
13 -341 486 0
-13 -341 -486 0
486 481 -229 0
-486 481 229 0
486 -481 229 0
-486 -481 -229 0
481 -487 0
486 -487 0
-481 -486 487 0
341 -488 0
13 -488 0
-341 -13 488 0
-487 485 0
-488 485 0
487 488 -485 0
14 342 -490 0
-14 342 490 0
14 -342 490 0
-14 -342 -490 0
490 485 -230 0
-490 485 230 0
490 -485 230 0
-490 -485 -230 0
485 -491 0
490 -491 0
-485 -490 491 0
342 -492 0
14 -492 0
-342 -14 492 0
-491 489 0
-492 489 0
491 492 -489 0
15 343 -494 0
-15 343 494 0
15 -343 494 0
-15 -343 -494 0
494 489 -231 0
-494 489 231 0
494 -489 231 0
-494 -489 -231 0
489 -495 0
494 -495 0
-489 -494 495 0
343 -496 0
15 -496 0
-343 -15 496 0
-495 493 0
-496 493 0
495 496 -493 0
16 344 -498 0
-16 344 498 0
16 -344 498 0
-16 -344 -498 0
498 493 -232 0
-498 493 232 0
498 -493 232 0
-498 -493 -232 0
493 -499 0
498 -499 0
-493 -498 499 0
344 -500 0
16 -500 0
-344 -16 500 0
-499 497 0
-500 497 0
499 500 -497 0
17 345 -502 0
-17 345 502 0
17 -345 502 0
-17 -345 -502 0
502 497 -233 0
-502 497 233 0
502 -497 233 0
-502 -497 -233 0
497 -503 0
502 -503 0
-497 -502 503 0
345 -504 0
17 -504 0
-345 -17 504 0
-503 501 0
-504 501 0
503 504 -501 0
18 346 -506 0
-18 346 506 0
18 -346 506 0
-18 -346 -506 0
506 501 -234 0
-506 501 234 0
506 -501 234 0
-506 -501 -234 0
501 -507 0
506 -507 0
-501 -506 507 0
346 -508 0
18 -508 0
-346 -18 508 0
-507 505 0
-508 505 0
507 508 -505 0
19 347 -510 0
-19 347 510 0
19 -347 510 0
-19 -347 -510 0
510 505 -235 0
-510 505 235 0
510 -505 235 0
-510 -505 -235 0
505 -511 0
510 -511 0
-505 -510 511 0
347 -512 0
19 -512 0
-347 -19 512 0
-511 509 0
-512 509 0
511 512 -509 0
20 348 -514 0
-20 348 514 0
20 -348 514 0
-20 -348 -514 0
514 509 -236 0
-514 509 236 0
514 -509 236 0
-514 -509 -236 0
509 -515 0
514 -515 0
-509 -514 515 0
348 -516 0
20 -516 0
-348 -20 516 0
-515 513 0
-516 513 0
515 516 -513 0
21 349 -518 0
-21 349 518 0
21 -349 518 0
-21 -349 -518 0
518 513 -237 0
-518 513 237 0
518 -513 237 0
-518 -513 -237 0
513 -519 0
518 -519 0
-513 -518 519 0
349 -520 0
21 -520 0
-349 -21 520 0
-519 517 0
-520 517 0
519 520 -517 0
22 350 -522 0
-22 350 522 0
22 -350 522 0
-22 -350 -522 0
522 517 -238 0
-522 517 238 0
522 -517 238 0
-522 -517 -238 0
517 -523 0
522 -523 0
-517 -522 523 0
350 -524 0
22 -524 0
-350 -22 524 0
-523 521 0
-524 521 0
523 524 -521 0
23 351 -526 0
-23 351 526 0
23 -351 526 0
-23 -351 -526 0
526 521 -239 0
-526 521 239 0
526 -521 239 0
-526 -521 -239 0
521 -527 0
526 -527 0
-521 -526 527 0
351 -528 0
23 -528 0
-351 -23 528 0
-527 525 0
-528 525 0
527 528 -525 0
24 352 -530 0
-24 352 530 0
24 -352 530 0
-24 -352 -530 0
530 525 -240 0
-530 525 240 0
530 -525 240 0
-530 -525 -240 0
525 -531 0
530 -531 0
-525 -530 531 0
352 -532 0
24 -532 0
-352 -24 532 0
-531 529 0
-532 529 0
531 532 -529 0
25 353 -534 0
-25 353 534 0
25 -353 534 0
-25 -353 -534 0
534 529 -241 0
-534 529 241 0
534 -529 241 0
-534 -529 -241 0
529 -535 0
534 -535 0
-529 -534 535 0
353 -536 0
25 -536 0
-353 -25 536 0
-535 533 0
-536 533 0
535 536 -533 0
26 354 -538 0
-26 354 538 0
26 -354 538 0
-26 -354 -538 0
538 533 -242 0
-538 533 242 0
538 -533 242 0
-538 -533 -242 0
533 -539 0
538 -539 0
-533 -538 539 0
354 -540 0
26 -540 0
-354 -26 540 0
-539 537 0
-540 537 0
539 540 -537 0
27 355 -542 0
-27 355 542 0
27 -355 542 0
-27 -355 -542 0
542 537 -243 0
-542 537 243 0
542 -537 243 0
-542 -537 -243 0
537 -543 0
542 -543 0
-537 -542 543 0
355 -544 0
27 -544 0
-355 -27 544 0
-543 541 0
-544 541 0
543 544 -541 0
28 356 -546 0
-28 356 546 0
28 -356 546 0
-28 -356 -546 0
546 541 -244 0
-546 541 244 0
546 -541 244 0
-546 -541 -244 0
541 -547 0
546 -547 0
-541 -546 547 0
356 -548 0
28 -548 0
-356 -28 548 0
-547 545 0
-548 545 0
547 548 -545 0
29 357 -550 0
-29 357 550 0
29 -357 550 0
-29 -357 -550 0
550 545 -245 0
-550 545 245 0
550 -545 245 0
-550 -545 -245 0
545 -551 0
550 -551 0
-545 -550 551 0
357 -552 0
29 -552 0
-357 -29 552 0
-551 549 0
-552 549 0
551 552 -549 0
30 358 -554 0
-30 358 554 0
30 -358 554 0
-30 -358 -554 0
554 549 -246 0
-554 549 246 0
554 -549 246 0
-554 -549 -246 0
549 -555 0
554 -555 0
-549 -554 555 0
358 -556 0
30 -556 0
-358 -30 556 0
-555 553 0
-556 553 0
555 556 -553 0
31 359 -558 0
-31 359 558 0
31 -359 558 0
-31 -359 -558 0
558 553 -247 0
-558 553 247 0
558 -553 247 0
-558 -553 -247 0
553 -559 0
558 -559 0
-553 -558 559 0
359 -560 0
31 -560 0
-359 -31 560 0
-559 557 0
-560 557 0
559 560 -557 0
32 360 -562 0
-32 360 562 0
32 -360 562 0
-32 -360 -562 0
562 557 -248 0
-562 557 248 0
562 -557 248 0
-562 -557 -248 0
557 -563 0
562 -563 0
-557 -562 563 0
360 -564 0
32 -564 0
-360 -32 564 0
-563 561 0
-564 561 0
563 564 -561 0
33 361 -566 0
-33 361 566 0
33 -361 566 0
-33 -361 -566 0
566 561 -249 0
-566 561 249 0
566 -561 249 0
-566 -561 -249 0
561 -567 0
566 -567 0
-561 -566 567 0
361 -568 0
33 -568 0
-361 -33 568 0
-567 565 0
-568 565 0
567 568 -565 0
34 362 -570 0
-34 362 570 0
34 -362 570 0
-34 -362 -570 0
570 565 -250 0
-570 565 250 0
570 -565 250 0
-570 -565 -250 0
565 -571 0
570 -571 0
-565 -570 571 0
362 -572 0
34 -572 0
-362 -34 572 0
-571 569 0
-572 569 0
571 572 -569 0
35 363 -574 0
-35 363 574 0
35 -363 574 0
-35 -363 -574 0
574 569 -251 0
-574 569 251 0
574 -569 251 0
-574 -569 -251 0
569 -575 0
574 -575 0
-569 -574 575 0
363 -576 0
35 -576 0
-363 -35 576 0
-575 573 0
-576 573 0
575 576 -573 0
36 364 -578 0
-36 364 578 0
36 -364 578 0
-36 -364 -578 0
578 573 -252 0
-578 573 252 0
578 -573 252 0
-578 -573 -252 0
573 -579 0
578 -579 0
-573 -578 579 0
364 -580 0
36 -580 0
-364 -36 580 0
-579 577 0
-580 577 0
579 580 -577 0
37 365 -582 0
-37 365 582 0
37 -365 582 0
-37 -365 -582 0
582 577 -253 0
-582 577 253 0
582 -577 253 0
-582 -577 -253 0
577 -583 0
582 -583 0
-577 -582 583 0
365 -584 0
37 -584 0
-365 -37 584 0
-583 581 0
-584 581 0
583 584 -581 0
38 366 -586 0
-38 366 586 0
38 -366 586 0
-38 -366 -586 0
586 581 -254 0
-586 581 254 0
586 -581 254 0
-586 -581 -254 0
581 -587 0
586 -587 0
-581 -586 587 0
366 -588 0
38 -588 0
-366 -38 588 0
-587 585 0
-588 585 0
587 588 -585 0
39 367 -590 0
-39 367 590 0
39 -367 590 0
-39 -367 -590 0
590 585 -255 0
-590 585 255 0
590 -585 255 0
-590 -585 -255 0
585 -591 0
590 -591 0
-585 -590 591 0
367 -592 0
39 -592 0
-367 -39 592 0
-591 589 0
-592 589 0
591 592 -589 0
40 368 -594 0
-40 368 594 0
40 -368 594 0
-40 -368 -594 0
594 589 -256 0
-594 589 256 0
594 -589 256 0
-594 -589 -256 0
589 -595 0
594 -595 0
-589 -594 595 0
368 -596 0
40 -596 0
-368 -40 596 0
-595 593 0
-596 593 0
595 596 -593 0
41 369 -598 0
-41 369 598 0
41 -369 598 0
-41 -369 -598 0
598 593 -257 0
-598 593 257 0
598 -593 257 0
-598 -593 -257 0
593 -599 0
598 -599 0
-593 -598 599 0
369 -600 0
41 -600 0
-369 -41 600 0
-599 597 0
-600 597 0
599 600 -597 0
42 370 -602 0
-42 370 602 0
42 -370 602 0
-42 -370 -602 0
602 597 -258 0
-602 597 258 0
602 -597 258 0
-602 -597 -258 0
597 -603 0
602 -603 0
-597 -602 603 0
370 -604 0
42 -604 0
-370 -42 604 0
-603 601 0
-604 601 0
603 604 -601 0
43 371 -606 0
-43 371 606 0
43 -371 606 0
-43 -371 -606 0
606 601 -259 0
-606 601 259 0
606 -601 259 0
-606 -601 -259 0
601 -607 0
606 -607 0
-601 -606 607 0
371 -608 0
43 -608 0
-371 -43 608 0
-607 605 0
-608 605 0
607 608 -605 0
44 372 -610 0
-44 372 610 0
44 -372 610 0
-44 -372 -610 0
610 605 -260 0
-610 605 260 0
610 -605 260 0
-610 -605 -260 0
605 -611 0
610 -611 0
-605 -610 611 0
372 -612 0
44 -612 0
-372 -44 612 0
-611 609 0
-612 609 0
611 612 -609 0
45 373 -614 0
-45 373 614 0
45 -373 614 0
-45 -373 -614 0
614 609 -261 0
-614 609 261 0
614 -609 261 0
-614 -609 -261 0
609 -615 0
614 -615 0
-609 -614 615 0
373 -616 0
45 -616 0
-373 -45 616 0
-615 613 0
-616 613 0
615 616 -613 0
46 374 -618 0
-46 374 618 0
46 -374 618 0
-46 -374 -618 0
618 613 -262 0
-618 613 262 0
618 -613 262 0
-618 -613 -262 0
613 -619 0
618 -619 0
-613 -618 619 0
374 -620 0
46 -620 0
-374 -46 620 0
-619 617 0
-620 617 0
619 620 -617 0
47 375 -622 0
-47 375 622 0
47 -375 622 0
-47 -375 -622 0
622 617 -263 0
-622 617 263 0
622 -617 263 0
-622 -617 -263 0
617 -623 0
622 -623 0
-617 -622 623 0
375 -624 0
47 -624 0
-375 -47 624 0
-623 621 0
-624 621 0
623 624 -621 0
48 376 -626 0
-48 376 626 0
48 -376 626 0
-48 -376 -626 0
626 621 -264 0
-626 621 264 0
626 -621 264 0
-626 -621 -264 0
621 -627 0
626 -627 0
-621 -626 627 0
376 -628 0
48 -628 0
-376 -48 628 0
-627 625 0
-628 625 0
627 628 -625 0
49 377 -630 0
-49 377 630 0
49 -377 630 0
-49 -377 -630 0
630 625 -265 0
-630 625 265 0
630 -625 265 0
-630 -625 -265 0
625 -631 0
630 -631 0
-625 -630 631 0
377 -632 0
49 -632 0
-377 -49 632 0
-631 629 0
-632 629 0
631 632 -629 0
50 378 -634 0
-50 378 634 0
50 -378 634 0
-50 -378 -634 0
634 629 -266 0
-634 629 266 0
634 -629 266 0
-634 -629 -266 0
629 -635 0
634 -635 0
-629 -634 635 0
378 -636 0
50 -636 0
-378 -50 636 0
-635 633 0
-636 633 0
635 636 -633 0
51 379 -638 0
-51 379 638 0
51 -379 638 0
-51 -379 -638 0
638 633 -267 0
-638 633 267 0
638 -633 267 0
-638 -633 -267 0
633 -639 0
638 -639 0
-633 -638 639 0
379 -640 0
51 -640 0
-379 -51 640 0
-639 637 0
-640 637 0
639 640 -637 0
52 380 -642 0
-52 380 642 0
52 -380 642 0
-52 -380 -642 0
642 637 -268 0
-642 637 268 0
642 -637 268 0
-642 -637 -268 0
637 -643 0
642 -643 0
-637 -642 643 0
380 -644 0
52 -644 0
-380 -52 644 0
-643 641 0
-644 641 0
643 644 -641 0
53 381 -646 0
-53 381 646 0
53 -381 646 0
-53 -381 -646 0
646 641 -269 0
-646 641 269 0
646 -641 269 0
-646 -641 -269 0
641 -647 0
646 -647 0
-641 -646 647 0
381 -648 0
53 -648 0
-381 -53 648 0
-647 645 0
-648 645 0
647 648 -645 0
54 382 -650 0
-54 382 650 0
54 -382 650 0
-54 -382 -650 0
650 645 -270 0
-650 645 270 0
650 -645 270 0
-650 -645 -270 0
645 -651 0
650 -651 0
-645 -650 651 0
382 -652 0
54 -652 0
-382 -54 652 0
-651 649 0
-652 649 0
651 652 -649 0
55 383 -654 0
-55 383 654 0
55 -383 654 0
-55 -383 -654 0
654 649 -271 0
-654 649 271 0
654 -649 271 0
-654 -649 -271 0
649 -655 0
654 -655 0
-649 -654 655 0
383 -656 0
55 -656 0
-383 -55 656 0
-655 653 0
-656 653 0
655 656 -653 0
56 384 -658 0
-56 384 658 0
56 -384 658 0
-56 -384 -658 0
658 653 -272 0
-658 653 272 0
658 -653 272 0
-658 -653 -272 0
653 -659 0
658 -659 0
-653 -658 659 0
384 -660 0
56 -660 0
-384 -56 660 0
-659 657 0
-660 657 0
659 660 -657 0
57 385 -662 0
-57 385 662 0
57 -385 662 0
-57 -385 -662 0
662 657 -273 0
-662 657 273 0
662 -657 273 0
-662 -657 -273 0
657 -663 0
662 -663 0
-657 -662 663 0
385 -664 0
57 -664 0
-385 -57 664 0
-663 661 0
-664 661 0
663 664 -661 0
58 386 -666 0
-58 386 666 0
58 -386 666 0
-58 -386 -666 0
666 661 -274 0
-666 661 274 0
666 -661 274 0
-666 -661 -274 0
661 -667 0
666 -667 0
-661 -666 667 0
386 -668 0
58 -668 0
-386 -58 668 0
-667 665 0
-668 665 0
667 668 -665 0
59 387 -670 0
-59 387 670 0
59 -387 670 0
-59 -387 -670 0
670 665 -275 0
-670 665 275 0
670 -665 275 0
-670 -665 -275 0
665 -671 0
670 -671 0
-665 -670 671 0
387 -672 0
59 -672 0
-387 -59 672 0
-671 669 0
-672 669 0
671 672 -669 0
60 388 -674 0
-60 388 674 0
60 -388 674 0
-60 -388 -674 0
674 669 -276 0
-674 669 276 0
674 -669 276 0
-674 -669 -276 0
669 -675 0
674 -675 0
-669 -674 675 0
388 -676 0
60 -676 0
-388 -60 676 0
-675 673 0
-676 673 0
675 676 -673 0
61 389 -678 0
-61 389 678 0
61 -389 678 0
-61 -389 -678 0
678 673 -277 0
-678 673 277 0
678 -673 277 0
-678 -673 -277 0
673 -679 0
678 -679 0
-673 -678 679 0
389 -680 0
61 -680 0
-389 -61 680 0
-679 677 0
-680 677 0
679 680 -677 0
62 390 -682 0
-62 390 682 0
62 -390 682 0
-62 -390 -682 0
682 677 -278 0
-682 677 278 0
682 -677 278 0
-682 -677 -278 0
677 -683 0
682 -683 0
-677 -682 683 0
390 -684 0
62 -684 0
-390 -62 684 0
-683 681 0
-684 681 0
683 684 -681 0
63 391 -686 0
-63 391 686 0
63 -391 686 0
-63 -391 -686 0
686 681 -279 0
-686 681 279 0
686 -681 279 0
-686 -681 -279 0
681 -687 0
686 -687 0
-681 -686 687 0
391 -688 0
63 -688 0
-391 -63 688 0
-687 685 0
-688 685 0
687 688 -685 0
64 392 -690 0
-64 392 690 0
64 -392 690 0
-64 -392 -690 0
690 685 -280 0
-690 685 280 0
690 -685 280 0
-690 -685 -280 0
685 -691 0
690 -691 0
-685 -690 691 0
392 -692 0
64 -692 0
-392 -64 692 0
-691 689 0
-692 689 0
691 692 -689 0
65 393 -694 0
-65 393 694 0
65 -393 694 0
-65 -393 -694 0
694 689 -281 0
-694 689 281 0
694 -689 281 0
-694 -689 -281 0
689 -695 0
694 -695 0
-689 -694 695 0
393 -696 0
65 -696 0
-393 -65 696 0
-695 693 0
-696 693 0
695 696 -693 0
66 394 -698 0
-66 394 698 0
66 -394 698 0
-66 -394 -698 0
698 693 -282 0
-698 693 282 0
698 -693 282 0
-698 -693 -282 0
693 -699 0
698 -699 0
-693 -698 699 0
394 -700 0
66 -700 0
-394 -66 700 0
-699 697 0
-700 697 0
699 700 -697 0
67 395 -702 0
-67 395 702 0
67 -395 702 0
-67 -395 -702 0
702 697 -283 0
-702 697 283 0
702 -697 283 0
-702 -697 -283 0
697 -703 0
702 -703 0
-697 -702 703 0
395 -704 0
67 -704 0
-395 -67 704 0
-703 701 0
-704 701 0
703 704 -701 0
68 396 -706 0
-68 396 706 0
68 -396 706 0
-68 -396 -706 0
706 701 -284 0
-706 701 284 0
706 -701 284 0
-706 -701 -284 0
701 -707 0
706 -707 0
-701 -706 707 0
396 -708 0
68 -708 0
-396 -68 708 0
-707 705 0
-708 705 0
707 708 -705 0
69 397 -710 0
-69 397 710 0
69 -397 710 0
-69 -397 -710 0
710 705 -285 0
-710 705 285 0
710 -705 285 0
-710 -705 -285 0
705 -711 0
710 -711 0
-705 -710 711 0
397 -712 0
69 -712 0
-397 -69 712 0
-711 709 0
-712 709 0
711 712 -709 0
70 398 -714 0
-70 398 714 0
70 -398 714 0
-70 -398 -714 0
714 709 -286 0
-714 709 286 0
714 -709 286 0
-714 -709 -286 0
709 -715 0
714 -715 0
-709 -714 715 0
398 -716 0
70 -716 0
-398 -70 716 0
-715 713 0
-716 713 0
715 716 -713 0
71 399 -718 0
-71 399 718 0
71 -399 718 0
-71 -399 -718 0
718 713 -287 0
-718 713 287 0
718 -713 287 0
-718 -713 -287 0
713 -719 0
718 -719 0
-713 -718 719 0
399 -720 0
71 -720 0
-399 -71 720 0
-719 717 0
-720 717 0
719 720 -717 0
72 400 -722 0
-72 400 722 0
72 -400 722 0
-72 -400 -722 0
722 717 -288 0
-722 717 288 0
722 -717 288 0
-722 -717 -288 0
717 -723 0
722 -723 0
-717 -722 723 0
400 -724 0
72 -724 0
-400 -72 724 0
-723 721 0
-724 721 0
723 724 -721 0
73 401 -726 0
-73 401 726 0
73 -401 726 0
-73 -401 -726 0
726 721 -289 0
-726 721 289 0
726 -721 289 0
-726 -721 -289 0
721 -727 0
726 -727 0
-721 -726 727 0
401 -728 0
73 -728 0
-401 -73 728 0
-727 725 0
-728 725 0
727 728 -725 0
74 402 -730 0
-74 402 730 0
74 -402 730 0
-74 -402 -730 0
730 725 -290 0
-730 725 290 0
730 -725 290 0
-730 -725 -290 0
725 -731 0
730 -731 0
-725 -730 731 0
402 -732 0
74 -732 0
-402 -74 732 0
-731 729 0
-732 729 0
731 732 -729 0
75 403 -734 0
-75 403 734 0
75 -403 734 0
-75 -403 -734 0
734 729 -291 0
-734 729 291 0
734 -729 291 0
-734 -729 -291 0
729 -735 0
734 -735 0
-729 -734 735 0
403 -736 0
75 -736 0
-403 -75 736 0
-735 733 0
-736 733 0
735 736 -733 0
76 404 -738 0
-76 404 738 0
76 -404 738 0
-76 -404 -738 0
738 733 -292 0
-738 733 292 0
738 -733 292 0
-738 -733 -292 0
733 -739 0
738 -739 0
-733 -738 739 0
404 -740 0
76 -740 0
-404 -76 740 0
-739 737 0
-740 737 0
739 740 -737 0
77 405 -742 0
-77 405 742 0
77 -405 742 0
-77 -405 -742 0
742 737 -293 0
-742 737 293 0
742 -737 293 0
-742 -737 -293 0
737 -743 0
742 -743 0
-737 -742 743 0
405 -744 0
77 -744 0
-405 -77 744 0
-743 741 0
-744 741 0
743 744 -741 0
78 406 -746 0
-78 406 746 0
78 -406 746 0
-78 -406 -746 0
746 741 -294 0
-746 741 294 0
746 -741 294 0
-746 -741 -294 0
741 -747 0
746 -747 0
-741 -746 747 0
406 -748 0
78 -748 0
-406 -78 748 0
-747 745 0
-748 745 0
747 748 -745 0
79 407 -750 0
-79 407 750 0
79 -407 750 0
-79 -407 -750 0
750 745 -295 0
-750 745 295 0
750 -745 295 0
-750 -745 -295 0
745 -751 0
750 -751 0
-745 -750 751 0
407 -752 0
79 -752 0
-407 -79 752 0
-751 749 0
-752 749 0
751 752 -749 0
80 408 -754 0
-80 408 754 0
80 -408 754 0
-80 -408 -754 0
754 749 -296 0
-754 749 296 0
754 -749 296 0
-754 -749 -296 0
749 -755 0
754 -755 0
-749 -754 755 0
408 -756 0
80 -756 0
-408 -80 756 0
-755 753 0
-756 753 0
755 756 -753 0
81 409 -758 0
-81 409 758 0
81 -409 758 0
-81 -409 -758 0
758 753 -297 0
-758 753 297 0
758 -753 297 0
-758 -753 -297 0
753 -759 0
758 -759 0
-753 -758 759 0
409 -760 0
81 -760 0
-409 -81 760 0
-759 757 0
-760 757 0
759 760 -757 0
82 410 -762 0
-82 410 762 0
82 -410 762 0
-82 -410 -762 0
762 757 -298 0
-762 757 298 0
762 -757 298 0
-762 -757 -298 0
757 -763 0
762 -763 0
-757 -762 763 0
410 -764 0
82 -764 0
-410 -82 764 0
-763 761 0
-764 761 0
763 764 -761 0
83 411 -766 0
-83 411 766 0
83 -411 766 0
-83 -411 -766 0
766 761 -299 0
-766 761 299 0
766 -761 299 0
-766 -761 -299 0
761 -767 0
766 -767 0
-761 -766 767 0
411 -768 0
83 -768 0
-411 -83 768 0
-767 765 0
-768 765 0
767 768 -765 0
84 412 -770 0
-84 412 770 0
84 -412 770 0
-84 -412 -770 0
770 765 -300 0
-770 765 300 0
770 -765 300 0
-770 -765 -300 0
765 -771 0
770 -771 0
-765 -770 771 0
412 -772 0
84 -772 0
-412 -84 772 0
-771 769 0
-772 769 0
771 772 -769 0
85 413 -774 0
-85 413 774 0
85 -413 774 0
-85 -413 -774 0
774 769 -301 0
-774 769 301 0
774 -769 301 0
-774 -769 -301 0
769 -775 0
774 -775 0
-769 -774 775 0
413 -776 0
85 -776 0
-413 -85 776 0
-775 773 0
-776 773 0
775 776 -773 0
86 414 -778 0
-86 414 778 0
86 -414 778 0
-86 -414 -778 0
778 773 -302 0
-778 773 302 0
778 -773 302 0
-778 -773 -302 0
773 -779 0
778 -779 0
-773 -778 779 0
414 -780 0
86 -780 0
-414 -86 780 0
-779 777 0
-780 777 0
779 780 -777 0
87 415 -782 0
-87 415 782 0
87 -415 782 0
-87 -415 -782 0
782 777 -303 0
-782 777 303 0
782 -777 303 0
-782 -777 -303 0
777 -783 0
782 -783 0
-777 -782 783 0
415 -784 0
87 -784 0
-415 -87 784 0
-783 781 0
-784 781 0
783 784 -781 0
88 416 -786 0
-88 416 786 0
88 -416 786 0
-88 -416 -786 0
786 781 -304 0
-786 781 304 0
786 -781 304 0
-786 -781 -304 0
781 -787 0
786 -787 0
-781 -786 787 0
416 -788 0
88 -788 0
-416 -88 788 0
-787 785 0
-788 785 0
787 788 -785 0
89 417 -790 0
-89 417 790 0
89 -417 790 0
-89 -417 -790 0
790 785 -305 0
-790 785 305 0
790 -785 305 0
-790 -785 -305 0
785 -791 0
790 -791 0
-785 -790 791 0
417 -792 0
89 -792 0
-417 -89 792 0
-791 789 0
-792 789 0
791 792 -789 0
90 418 -794 0
-90 418 794 0
90 -418 794 0
-90 -418 -794 0
794 789 -306 0
-794 789 306 0
794 -789 306 0
-794 -789 -306 0
789 -795 0
794 -795 0
-789 -794 795 0
418 -796 0
90 -796 0
-418 -90 796 0
-795 793 0
-796 793 0
795 796 -793 0
91 419 -798 0
-91 419 798 0
91 -419 798 0
-91 -419 -798 0
798 793 -307 0
-798 793 307 0
798 -793 307 0
-798 -793 -307 0
793 -799 0
798 -799 0
-793 -798 799 0
419 -800 0
91 -800 0
-419 -91 800 0
-799 797 0
-800 797 0
799 800 -797 0
92 420 -802 0
-92 420 802 0
92 -420 802 0
-92 -420 -802 0
802 797 -308 0
-802 797 308 0
802 -797 308 0
-802 -797 -308 0
797 -803 0
802 -803 0
-797 -802 803 0
420 -804 0
92 -804 0
-420 -92 804 0
-803 801 0
-804 801 0
803 804 -801 0
93 421 -806 0
-93 421 806 0
93 -421 806 0
-93 -421 -806 0
806 801 -309 0
-806 801 309 0
806 -801 309 0
-806 -801 -309 0
801 -807 0
806 -807 0
-801 -806 807 0
421 -808 0
93 -808 0
-421 -93 808 0
-807 805 0
-808 805 0
807 808 -805 0
94 422 -810 0
-94 422 810 0
94 -422 810 0
-94 -422 -810 0
810 805 -310 0
-810 805 310 0
810 -805 310 0
-810 -805 -310 0
805 -811 0
810 -811 0
-805 -810 811 0
422 -812 0
94 -812 0
-422 -94 812 0
-811 809 0
-812 809 0
811 812 -809 0
95 423 -814 0
-95 423 814 0
95 -423 814 0
-95 -423 -814 0
814 809 -311 0
-814 809 311 0
814 -809 311 0
-814 -809 -311 0
809 -815 0
814 -815 0
-809 -814 815 0
423 -816 0
95 -816 0
-423 -95 816 0
-815 813 0
-816 813 0
815 816 -813 0
96 424 -818 0
-96 424 818 0
96 -424 818 0
-96 -424 -818 0
818 813 -312 0
-818 813 312 0
818 -813 312 0
-818 -813 -312 0
813 -819 0
818 -819 0
-813 -818 819 0
424 -820 0
96 -820 0
-424 -96 820 0
-819 817 0
-820 817 0
819 820 -817 0
97 425 -822 0
-97 425 822 0
97 -425 822 0
-97 -425 -822 0
822 817 -313 0
-822 817 313 0
822 -817 313 0
-822 -817 -313 0
817 -823 0
822 -823 0
-817 -822 823 0
425 -824 0
97 -824 0
-425 -97 824 0
-823 821 0
-824 821 0
823 824 -821 0
98 426 -826 0
-98 426 826 0
98 -426 826 0
-98 -426 -826 0
826 821 -314 0
-826 821 314 0
826 -821 314 0
-826 -821 -314 0
821 -827 0
826 -827 0
-821 -826 827 0
426 -828 0
98 -828 0
-426 -98 828 0
-827 825 0
-828 825 0
827 828 -825 0
99 427 -830 0
-99 427 830 0
99 -427 830 0
-99 -427 -830 0
830 825 -315 0
-830 825 315 0
830 -825 315 0
-830 -825 -315 0
825 -831 0
830 -831 0
-825 -830 831 0
427 -832 0
99 -832 0
-427 -99 832 0
-831 829 0
-832 829 0
831 832 -829 0
100 428 -834 0
-100 428 834 0
100 -428 834 0
-100 -428 -834 0
834 829 -316 0
-834 829 316 0
834 -829 316 0
-834 -829 -316 0
829 -835 0
834 -835 0
-829 -834 835 0
428 -836 0
100 -836 0
-428 -100 836 0
-835 833 0
-836 833 0
835 836 -833 0
101 429 -838 0
-101 429 838 0
101 -429 838 0
-101 -429 -838 0
838 833 -317 0
-838 833 317 0
838 -833 317 0
-838 -833 -317 0
833 -839 0
838 -839 0
-833 -838 839 0
429 -840 0
101 -840 0
-429 -101 840 0
-839 837 0
-840 837 0
839 840 -837 0
102 430 -842 0
-102 430 842 0
102 -430 842 0
-102 -430 -842 0
842 837 -318 0
-842 837 318 0
842 -837 318 0
-842 -837 -318 0
837 -843 0
842 -843 0
-837 -842 843 0
430 -844 0
102 -844 0
-430 -102 844 0
-843 841 0
-844 841 0
843 844 -841 0
103 431 -846 0
-103 431 846 0
103 -431 846 0
-103 -431 -846 0
846 841 -319 0
-846 841 319 0
846 -841 319 0
-846 -841 -319 0
841 -847 0
846 -847 0
-841 -846 847 0
431 -848 0
103 -848 0
-431 -103 848 0
-847 845 0
-848 845 0
847 848 -845 0
104 432 -850 0
-104 432 850 0
104 -432 850 0
-104 -432 -850 0
850 845 -320 0
-850 845 320 0
850 -845 320 0
-850 -845 -320 0
845 -851 0
850 -851 0
-845 -850 851 0
432 -852 0
104 -852 0
-432 -104 852 0
-851 849 0
-852 849 0
851 852 -849 0
105 433 -854 0
-105 433 854 0
105 -433 854 0
-105 -433 -854 0
854 849 -321 0
-854 849 321 0
854 -849 321 0
-854 -849 -321 0
849 -855 0
854 -855 0
-849 -854 855 0
433 -856 0
105 -856 0
-433 -105 856 0
-855 853 0
-856 853 0
855 856 -853 0
106 434 -858 0
-106 434 858 0
106 -434 858 0
-106 -434 -858 0
858 853 -322 0
-858 853 322 0
858 -853 322 0
-858 -853 -322 0
853 -859 0
858 -859 0
-853 -858 859 0
434 -860 0
106 -860 0
-434 -106 860 0
-859 857 0
-860 857 0
859 860 -857 0
107 435 -862 0
-107 435 862 0
107 -435 862 0
-107 -435 -862 0
862 857 -323 0
-862 857 323 0
862 -857 323 0
-862 -857 -323 0
857 -863 0
862 -863 0
-857 -862 863 0
435 -864 0
107 -864 0
-435 -107 864 0
-863 861 0
-864 861 0
863 864 -861 0
108 436 -866 0
-108 436 866 0
108 -436 866 0
-108 -436 -866 0
866 861 -324 0
-866 861 324 0
866 -861 324 0
-866 -861 -324 0
861 -867 0
866 -867 0
-861 -866 867 0
436 -868 0
108 -868 0
-436 -108 868 0
-867 865 0
-868 865 0
867 868 -865 0
865 326 -325 0
-865 326 325 0
865 -326 325 0
-865 -326 -325 0
